$molecule
0 1
O  -0.0006  4.0000 -0.0005
H   0.9256  4.0000 -0.2481
H  -0.0001  4.0000  0.9583
$end
$rem
jobtype sp
method B3LYP
basis cc-pvdz
$end