$molecule
0 1
O -0.0005900753 4.0 -0.000452674
H 0.9256102457 4.0 -0.2481132352
H -9.30743e-05 4.0 0.9582869092
$end
$rem
jobtype sp
method B3LYP
basis cc-pvdz
$end